
(set-option :produce-models true)
(set-option :inline-size-limit 10000)

(declare-const var0 String)

(push 1)
(assert (str.in.re var0 (re.* (re.range "\x01" "\xff"))))
(assert (str.in.re var0 (re.++ re.begin-anchor (re.++ ((_ re.capture 1) (re.opt (str.to.re "+"))) (re.++ ((_ re.capture 2) ((_ re.loop 2 4) (re.range "0" "9"))) (re.++ ((_ re.capture 3) (re.opt (re.union (str.to.re " ") (re.union (str.to.re "\u{0b}") (re.union (str.to.re "\u{0a}") (re.union (str.to.re "\u{0d}") (re.union (str.to.re "\u{09}") (str.to.re "\u{0c}")))))))) (re.++ ((_ re.capture 4) (re.opt (str.to.re "-"))) (re.++ ((_ re.capture 5) (re.opt ((_ re.capture 6) (re.++ (str.to.re "(") (re.++ (str.to.re "0") (str.to.re ")")))))) (re.++ ((_ re.capture 7) (re.opt (re.union (str.to.re " ") (re.union (str.to.re "\u{0b}") (re.union (str.to.re "\u{0a}") (re.union (str.to.re "\u{0d}") (re.union (str.to.re "\u{09}") (str.to.re "\u{0c}")))))))) (re.++ ((_ re.capture 8) ((_ re.loop 0 2) (re.range "0" "9"))) (re.++ ((_ re.capture 9) (re.opt (re.union (str.to.re " ") (re.union (str.to.re "\u{0b}") (re.union (str.to.re "\u{0a}") (re.union (str.to.re "\u{0d}") (re.union (str.to.re "\u{09}") (str.to.re "\u{0c}")))))))) (re.++ ((_ re.capture 10) (re.opt (str.to.re "-"))) (re.++ ((_ re.capture 11) ((_ re.loop 0 3) (re.range "0" "9"))) (re.++ ((_ re.capture 12) (re.opt (re.union (str.to.re " ") (re.union (str.to.re "\u{0b}") (re.union (str.to.re "\u{0a}") (re.union (str.to.re "\u{0d}") (re.union (str.to.re "\u{09}") (str.to.re "\u{0c}")))))))) (re.++ ((_ re.capture 13) (re.opt (str.to.re "-"))) (re.++ ((_ re.capture 14) ((_ re.loop 0 2) (re.range "0" "9"))) (re.++ ((_ re.capture 15) (re.opt (re.union (str.to.re " ") (re.union (str.to.re "\u{0b}") (re.union (str.to.re "\u{0a}") (re.union (str.to.re "\u{0d}") (re.union (str.to.re "\u{09}") (str.to.re "\u{0c}")))))))) (re.++ ((_ re.capture 16) (re.opt (str.to.re "-"))) (re.++ ((_ re.capture 17) ((_ re.loop 0 2) (re.range "0" "9"))) re.all)))))))))))))))))))	; match!==null
(assert (not (str.in.re ((_ str.extract 1) var0 (re.++ re.begin-anchor (re.++ ((_ re.capture 1) (re.opt (str.to.re "+"))) (re.++ ((_ re.capture 2) ((_ re.loop 2 4) (re.range "0" "9"))) (re.++ ((_ re.capture 3) (re.opt (re.union (str.to.re " ") (re.union (str.to.re "\u{0b}") (re.union (str.to.re "\u{0a}") (re.union (str.to.re "\u{0d}") (re.union (str.to.re "\u{09}") (str.to.re "\u{0c}")))))))) (re.++ ((_ re.capture 4) (re.opt (str.to.re "-"))) (re.++ ((_ re.capture 5) (re.opt ((_ re.capture 6) (re.++ (str.to.re "(") (re.++ (str.to.re "0") (str.to.re ")")))))) (re.++ ((_ re.capture 7) (re.opt (re.union (str.to.re " ") (re.union (str.to.re "\u{0b}") (re.union (str.to.re "\u{0a}") (re.union (str.to.re "\u{0d}") (re.union (str.to.re "\u{09}") (str.to.re "\u{0c}")))))))) (re.++ ((_ re.capture 8) ((_ re.loop 0 2) (re.range "0" "9"))) (re.++ ((_ re.capture 9) (re.opt (re.union (str.to.re " ") (re.union (str.to.re "\u{0b}") (re.union (str.to.re "\u{0a}") (re.union (str.to.re "\u{0d}") (re.union (str.to.re "\u{09}") (str.to.re "\u{0c}")))))))) (re.++ ((_ re.capture 10) (re.opt (str.to.re "-"))) (re.++ ((_ re.capture 11) ((_ re.loop 0 3) (re.range "0" "9"))) (re.++ ((_ re.capture 12) (re.opt (re.union (str.to.re " ") (re.union (str.to.re "\u{0b}") (re.union (str.to.re "\u{0a}") (re.union (str.to.re "\u{0d}") (re.union (str.to.re "\u{09}") (str.to.re "\u{0c}")))))))) (re.++ ((_ re.capture 13) (re.opt (str.to.re "-"))) (re.++ ((_ re.capture 14) ((_ re.loop 0 2) (re.range "0" "9"))) (re.++ ((_ re.capture 15) (re.opt (re.union (str.to.re " ") (re.union (str.to.re "\u{0b}") (re.union (str.to.re "\u{0a}") (re.union (str.to.re "\u{0d}") (re.union (str.to.re "\u{09}") (str.to.re "\u{0c}")))))))) (re.++ ((_ re.capture 16) (re.opt (str.to.re "-"))) (re.++ ((_ re.capture 17) ((_ re.loop 0 2) (re.range "0" "9"))) re.all)))))))))))))))))) (str.to.re "\x00"))))
;match[1]!==null
(assert (str.in.re ((_ str.extract 1) var0 (re.++ re.begin-anchor (re.++ ((_ re.capture 1) (re.opt (str.to.re "+"))) (re.++ ((_ re.capture 2) ((_ re.loop 2 4) (re.range "0" "9"))) (re.++ ((_ re.capture 3) (re.opt (re.union (str.to.re " ") (re.union (str.to.re "\u{0b}") (re.union (str.to.re "\u{0a}") (re.union (str.to.re "\u{0d}") (re.union (str.to.re "\u{09}") (str.to.re "\u{0c}")))))))) (re.++ ((_ re.capture 4) (re.opt (str.to.re "-"))) (re.++ ((_ re.capture 5) (re.opt ((_ re.capture 6) (re.++ (str.to.re "(") (re.++ (str.to.re "0") (str.to.re ")")))))) (re.++ ((_ re.capture 7) (re.opt (re.union (str.to.re " ") (re.union (str.to.re "\u{0b}") (re.union (str.to.re "\u{0a}") (re.union (str.to.re "\u{0d}") (re.union (str.to.re "\u{09}") (str.to.re "\u{0c}")))))))) (re.++ ((_ re.capture 8) ((_ re.loop 0 2) (re.range "0" "9"))) (re.++ ((_ re.capture 9) (re.opt (re.union (str.to.re " ") (re.union (str.to.re "\u{0b}") (re.union (str.to.re "\u{0a}") (re.union (str.to.re "\u{0d}") (re.union (str.to.re "\u{09}") (str.to.re "\u{0c}")))))))) (re.++ ((_ re.capture 10) (re.opt (str.to.re "-"))) (re.++ ((_ re.capture 11) ((_ re.loop 0 3) (re.range "0" "9"))) (re.++ ((_ re.capture 12) (re.opt (re.union (str.to.re " ") (re.union (str.to.re "\u{0b}") (re.union (str.to.re "\u{0a}") (re.union (str.to.re "\u{0d}") (re.union (str.to.re "\u{09}") (str.to.re "\u{0c}")))))))) (re.++ ((_ re.capture 13) (re.opt (str.to.re "-"))) (re.++ ((_ re.capture 14) ((_ re.loop 0 2) (re.range "0" "9"))) (re.++ ((_ re.capture 15) (re.opt (re.union (str.to.re " ") (re.union (str.to.re "\u{0b}") (re.union (str.to.re "\u{0a}") (re.union (str.to.re "\u{0d}") (re.union (str.to.re "\u{09}") (str.to.re "\u{0c}")))))))) (re.++ ((_ re.capture 16) (re.opt (str.to.re "-"))) (re.++ ((_ re.capture 17) ((_ re.loop 0 2) (re.range "0" "9"))) re.all)))))))))))))))))) (re.++ re.all(re.+ (re.range "a" "z")) re.all) ))
;/[a-z]+/.test(match[1]) == true
(check-sat)
(get-model)
(pop 1)
(push 1)
(assert (str.in.re var0 (re.* (re.range "\x01" "\xff"))))
(assert (str.in.re var0 (re.++ re.begin-anchor (re.++ ((_ re.capture 1) (re.opt (str.to.re "+"))) (re.++ ((_ re.capture 2) ((_ re.loop 2 4) (re.range "0" "9"))) (re.++ ((_ re.capture 3) (re.opt (re.union (str.to.re " ") (re.union (str.to.re "\u{0b}") (re.union (str.to.re "\u{0a}") (re.union (str.to.re "\u{0d}") (re.union (str.to.re "\u{09}") (str.to.re "\u{0c}")))))))) (re.++ ((_ re.capture 4) (re.opt (str.to.re "-"))) (re.++ ((_ re.capture 5) (re.opt ((_ re.capture 6) (re.++ (str.to.re "(") (re.++ (str.to.re "0") (str.to.re ")")))))) (re.++ ((_ re.capture 7) (re.opt (re.union (str.to.re " ") (re.union (str.to.re "\u{0b}") (re.union (str.to.re "\u{0a}") (re.union (str.to.re "\u{0d}") (re.union (str.to.re "\u{09}") (str.to.re "\u{0c}")))))))) (re.++ ((_ re.capture 8) ((_ re.loop 0 2) (re.range "0" "9"))) (re.++ ((_ re.capture 9) (re.opt (re.union (str.to.re " ") (re.union (str.to.re "\u{0b}") (re.union (str.to.re "\u{0a}") (re.union (str.to.re "\u{0d}") (re.union (str.to.re "\u{09}") (str.to.re "\u{0c}")))))))) (re.++ ((_ re.capture 10) (re.opt (str.to.re "-"))) (re.++ ((_ re.capture 11) ((_ re.loop 0 3) (re.range "0" "9"))) (re.++ ((_ re.capture 12) (re.opt (re.union (str.to.re " ") (re.union (str.to.re "\u{0b}") (re.union (str.to.re "\u{0a}") (re.union (str.to.re "\u{0d}") (re.union (str.to.re "\u{09}") (str.to.re "\u{0c}")))))))) (re.++ ((_ re.capture 13) (re.opt (str.to.re "-"))) (re.++ ((_ re.capture 14) ((_ re.loop 0 2) (re.range "0" "9"))) (re.++ ((_ re.capture 15) (re.opt (re.union (str.to.re " ") (re.union (str.to.re "\u{0b}") (re.union (str.to.re "\u{0a}") (re.union (str.to.re "\u{0d}") (re.union (str.to.re "\u{09}") (str.to.re "\u{0c}")))))))) (re.++ ((_ re.capture 16) (re.opt (str.to.re "-"))) (re.++ ((_ re.capture 17) ((_ re.loop 0 2) (re.range "0" "9"))) re.all)))))))))))))))))))	; match!==null
(assert (not (str.in.re ((_ str.extract 1) var0 (re.++ re.begin-anchor (re.++ ((_ re.capture 1) (re.opt (str.to.re "+"))) (re.++ ((_ re.capture 2) ((_ re.loop 2 4) (re.range "0" "9"))) (re.++ ((_ re.capture 3) (re.opt (re.union (str.to.re " ") (re.union (str.to.re "\u{0b}") (re.union (str.to.re "\u{0a}") (re.union (str.to.re "\u{0d}") (re.union (str.to.re "\u{09}") (str.to.re "\u{0c}")))))))) (re.++ ((_ re.capture 4) (re.opt (str.to.re "-"))) (re.++ ((_ re.capture 5) (re.opt ((_ re.capture 6) (re.++ (str.to.re "(") (re.++ (str.to.re "0") (str.to.re ")")))))) (re.++ ((_ re.capture 7) (re.opt (re.union (str.to.re " ") (re.union (str.to.re "\u{0b}") (re.union (str.to.re "\u{0a}") (re.union (str.to.re "\u{0d}") (re.union (str.to.re "\u{09}") (str.to.re "\u{0c}")))))))) (re.++ ((_ re.capture 8) ((_ re.loop 0 2) (re.range "0" "9"))) (re.++ ((_ re.capture 9) (re.opt (re.union (str.to.re " ") (re.union (str.to.re "\u{0b}") (re.union (str.to.re "\u{0a}") (re.union (str.to.re "\u{0d}") (re.union (str.to.re "\u{09}") (str.to.re "\u{0c}")))))))) (re.++ ((_ re.capture 10) (re.opt (str.to.re "-"))) (re.++ ((_ re.capture 11) ((_ re.loop 0 3) (re.range "0" "9"))) (re.++ ((_ re.capture 12) (re.opt (re.union (str.to.re " ") (re.union (str.to.re "\u{0b}") (re.union (str.to.re "\u{0a}") (re.union (str.to.re "\u{0d}") (re.union (str.to.re "\u{09}") (str.to.re "\u{0c}")))))))) (re.++ ((_ re.capture 13) (re.opt (str.to.re "-"))) (re.++ ((_ re.capture 14) ((_ re.loop 0 2) (re.range "0" "9"))) (re.++ ((_ re.capture 15) (re.opt (re.union (str.to.re " ") (re.union (str.to.re "\u{0b}") (re.union (str.to.re "\u{0a}") (re.union (str.to.re "\u{0d}") (re.union (str.to.re "\u{09}") (str.to.re "\u{0c}")))))))) (re.++ ((_ re.capture 16) (re.opt (str.to.re "-"))) (re.++ ((_ re.capture 17) ((_ re.loop 0 2) (re.range "0" "9"))) re.all)))))))))))))))))) (str.to.re "\x00"))))	
;match[1]!==null
(assert (not (str.in.re ((_ str.extract 1) var0 (re.++ re.begin-anchor (re.++ ((_ re.capture 1) (re.opt (str.to.re "+"))) (re.++ ((_ re.capture 2) ((_ re.loop 2 4) (re.range "0" "9"))) (re.++ ((_ re.capture 3) (re.opt (re.union (str.to.re " ") (re.union (str.to.re "\u{0b}") (re.union (str.to.re "\u{0a}") (re.union (str.to.re "\u{0d}") (re.union (str.to.re "\u{09}") (str.to.re "\u{0c}")))))))) (re.++ ((_ re.capture 4) (re.opt (str.to.re "-"))) (re.++ ((_ re.capture 5) (re.opt ((_ re.capture 6) (re.++ (str.to.re "(") (re.++ (str.to.re "0") (str.to.re ")")))))) (re.++ ((_ re.capture 7) (re.opt (re.union (str.to.re " ") (re.union (str.to.re "\u{0b}") (re.union (str.to.re "\u{0a}") (re.union (str.to.re "\u{0d}") (re.union (str.to.re "\u{09}") (str.to.re "\u{0c}")))))))) (re.++ ((_ re.capture 8) ((_ re.loop 0 2) (re.range "0" "9"))) (re.++ ((_ re.capture 9) (re.opt (re.union (str.to.re " ") (re.union (str.to.re "\u{0b}") (re.union (str.to.re "\u{0a}") (re.union (str.to.re "\u{0d}") (re.union (str.to.re "\u{09}") (str.to.re "\u{0c}")))))))) (re.++ ((_ re.capture 10) (re.opt (str.to.re "-"))) (re.++ ((_ re.capture 11) ((_ re.loop 0 3) (re.range "0" "9"))) (re.++ ((_ re.capture 12) (re.opt (re.union (str.to.re " ") (re.union (str.to.re "\u{0b}") (re.union (str.to.re "\u{0a}") (re.union (str.to.re "\u{0d}") (re.union (str.to.re "\u{09}") (str.to.re "\u{0c}")))))))) (re.++ ((_ re.capture 13) (re.opt (str.to.re "-"))) (re.++ ((_ re.capture 14) ((_ re.loop 0 2) (re.range "0" "9"))) (re.++ ((_ re.capture 15) (re.opt (re.union (str.to.re " ") (re.union (str.to.re "\u{0b}") (re.union (str.to.re "\u{0a}") (re.union (str.to.re "\u{0d}") (re.union (str.to.re "\u{09}") (str.to.re "\u{0c}")))))))) (re.++ ((_ re.capture 16) (re.opt (str.to.re "-"))) (re.++ ((_ re.capture 17) ((_ re.loop 0 2) (re.range "0" "9"))) re.all)))))))))))))))))) (re.++ re.all(re.+ (re.range "a" "z")) re.all) )))
;/[a-z]+/.test(match[1]) == false	
(check-sat)
(get-model)
(pop 1)
(push 1)
(assert (str.in.re var0 (re.* (re.range "\x01" "\xff"))))
(assert (str.in.re var0 (re.++ re.begin-anchor (re.++ ((_ re.capture 1) (re.opt (str.to.re "+"))) (re.++ ((_ re.capture 2) ((_ re.loop 2 4) (re.range "0" "9"))) (re.++ ((_ re.capture 3) (re.opt (re.union (str.to.re " ") (re.union (str.to.re "\u{0b}") (re.union (str.to.re "\u{0a}") (re.union (str.to.re "\u{0d}") (re.union (str.to.re "\u{09}") (str.to.re "\u{0c}")))))))) (re.++ ((_ re.capture 4) (re.opt (str.to.re "-"))) (re.++ ((_ re.capture 5) (re.opt ((_ re.capture 6) (re.++ (str.to.re "(") (re.++ (str.to.re "0") (str.to.re ")")))))) (re.++ ((_ re.capture 7) (re.opt (re.union (str.to.re " ") (re.union (str.to.re "\u{0b}") (re.union (str.to.re "\u{0a}") (re.union (str.to.re "\u{0d}") (re.union (str.to.re "\u{09}") (str.to.re "\u{0c}")))))))) (re.++ ((_ re.capture 8) ((_ re.loop 0 2) (re.range "0" "9"))) (re.++ ((_ re.capture 9) (re.opt (re.union (str.to.re " ") (re.union (str.to.re "\u{0b}") (re.union (str.to.re "\u{0a}") (re.union (str.to.re "\u{0d}") (re.union (str.to.re "\u{09}") (str.to.re "\u{0c}")))))))) (re.++ ((_ re.capture 10) (re.opt (str.to.re "-"))) (re.++ ((_ re.capture 11) ((_ re.loop 0 3) (re.range "0" "9"))) (re.++ ((_ re.capture 12) (re.opt (re.union (str.to.re " ") (re.union (str.to.re "\u{0b}") (re.union (str.to.re "\u{0a}") (re.union (str.to.re "\u{0d}") (re.union (str.to.re "\u{09}") (str.to.re "\u{0c}")))))))) (re.++ ((_ re.capture 13) (re.opt (str.to.re "-"))) (re.++ ((_ re.capture 14) ((_ re.loop 0 2) (re.range "0" "9"))) (re.++ ((_ re.capture 15) (re.opt (re.union (str.to.re " ") (re.union (str.to.re "\u{0b}") (re.union (str.to.re "\u{0a}") (re.union (str.to.re "\u{0d}") (re.union (str.to.re "\u{09}") (str.to.re "\u{0c}")))))))) (re.++ ((_ re.capture 16) (re.opt (str.to.re "-"))) (re.++ ((_ re.capture 17) ((_ re.loop 0 2) (re.range "0" "9"))) re.all)))))))))))))))))))	; match!==null
(assert (str.in.re ((_ str.extract 1) var0 (re.++ re.begin-anchor (re.++ ((_ re.capture 1) (re.opt (str.to.re "+"))) (re.++ ((_ re.capture 2) ((_ re.loop 2 4) (re.range "0" "9"))) (re.++ ((_ re.capture 3) (re.opt (re.union (str.to.re " ") (re.union (str.to.re "\u{0b}") (re.union (str.to.re "\u{0a}") (re.union (str.to.re "\u{0d}") (re.union (str.to.re "\u{09}") (str.to.re "\u{0c}")))))))) (re.++ ((_ re.capture 4) (re.opt (str.to.re "-"))) (re.++ ((_ re.capture 5) (re.opt ((_ re.capture 6) (re.++ (str.to.re "(") (re.++ (str.to.re "0") (str.to.re ")")))))) (re.++ ((_ re.capture 7) (re.opt (re.union (str.to.re " ") (re.union (str.to.re "\u{0b}") (re.union (str.to.re "\u{0a}") (re.union (str.to.re "\u{0d}") (re.union (str.to.re "\u{09}") (str.to.re "\u{0c}")))))))) (re.++ ((_ re.capture 8) ((_ re.loop 0 2) (re.range "0" "9"))) (re.++ ((_ re.capture 9) (re.opt (re.union (str.to.re " ") (re.union (str.to.re "\u{0b}") (re.union (str.to.re "\u{0a}") (re.union (str.to.re "\u{0d}") (re.union (str.to.re "\u{09}") (str.to.re "\u{0c}")))))))) (re.++ ((_ re.capture 10) (re.opt (str.to.re "-"))) (re.++ ((_ re.capture 11) ((_ re.loop 0 3) (re.range "0" "9"))) (re.++ ((_ re.capture 12) (re.opt (re.union (str.to.re " ") (re.union (str.to.re "\u{0b}") (re.union (str.to.re "\u{0a}") (re.union (str.to.re "\u{0d}") (re.union (str.to.re "\u{09}") (str.to.re "\u{0c}")))))))) (re.++ ((_ re.capture 13) (re.opt (str.to.re "-"))) (re.++ ((_ re.capture 14) ((_ re.loop 0 2) (re.range "0" "9"))) (re.++ ((_ re.capture 15) (re.opt (re.union (str.to.re " ") (re.union (str.to.re "\u{0b}") (re.union (str.to.re "\u{0a}") (re.union (str.to.re "\u{0d}") (re.union (str.to.re "\u{09}") (str.to.re "\u{0c}")))))))) (re.++ ((_ re.capture 16) (re.opt (str.to.re "-"))) (re.++ ((_ re.capture 17) ((_ re.loop 0 2) (re.range "0" "9"))) re.all)))))))))))))))))) (str.to.re "\x00")))
;match[1]==null
(check-sat)
(get-model)
(pop 1)
(push 1)
(assert (str.in.re var0 (re.* (re.range "\x01" "\xff"))))
(assert (not (str.in.re var0 (re.++ re.begin-anchor (re.++ ((_ re.capture 1) (re.opt (str.to.re "+"))) (re.++ ((_ re.capture 2) ((_ re.loop 2 4) (re.range "0" "9"))) (re.++ ((_ re.capture 3) (re.opt (re.union (str.to.re " ") (re.union (str.to.re "\u{0b}") (re.union (str.to.re "\u{0a}") (re.union (str.to.re "\u{0d}") (re.union (str.to.re "\u{09}") (str.to.re "\u{0c}")))))))) (re.++ ((_ re.capture 4) (re.opt (str.to.re "-"))) (re.++ ((_ re.capture 5) (re.opt ((_ re.capture 6) (re.++ (str.to.re "(") (re.++ (str.to.re "0") (str.to.re ")")))))) (re.++ ((_ re.capture 7) (re.opt (re.union (str.to.re " ") (re.union (str.to.re "\u{0b}") (re.union (str.to.re "\u{0a}") (re.union (str.to.re "\u{0d}") (re.union (str.to.re "\u{09}") (str.to.re "\u{0c}")))))))) (re.++ ((_ re.capture 8) ((_ re.loop 0 2) (re.range "0" "9"))) (re.++ ((_ re.capture 9) (re.opt (re.union (str.to.re " ") (re.union (str.to.re "\u{0b}") (re.union (str.to.re "\u{0a}") (re.union (str.to.re "\u{0d}") (re.union (str.to.re "\u{09}") (str.to.re "\u{0c}")))))))) (re.++ ((_ re.capture 10) (re.opt (str.to.re "-"))) (re.++ ((_ re.capture 11) ((_ re.loop 0 3) (re.range "0" "9"))) (re.++ ((_ re.capture 12) (re.opt (re.union (str.to.re " ") (re.union (str.to.re "\u{0b}") (re.union (str.to.re "\u{0a}") (re.union (str.to.re "\u{0d}") (re.union (str.to.re "\u{09}") (str.to.re "\u{0c}")))))))) (re.++ ((_ re.capture 13) (re.opt (str.to.re "-"))) (re.++ ((_ re.capture 14) ((_ re.loop 0 2) (re.range "0" "9"))) (re.++ ((_ re.capture 15) (re.opt (re.union (str.to.re " ") (re.union (str.to.re "\u{0b}") (re.union (str.to.re "\u{0a}") (re.union (str.to.re "\u{0d}") (re.union (str.to.re "\u{09}") (str.to.re "\u{0c}")))))))) (re.++ ((_ re.capture 16) (re.opt (str.to.re "-"))) (re.++ ((_ re.capture 17) ((_ re.loop 0 2) (re.range "0" "9"))) re.all))))))))))))))))))))	; match == null
(check-sat)
(get-model)
(pop 1)
(exit)
